32	4
13	15	19	11
0	0	0	0	0	8	2	8	9	15	16	18	30	31
10	3	0	1	0	1	3
4	5	0	4	0	1	4
3	1	0	0	11	3	5	28	29
2	0	2	0	7	1	6
4	10	0	14	0	3	7	24	27
4	0	5	12	0	5	10	22	23	25	26
6	0	0	19	4	3	11	24	29
9	0	6	0	8	2	12	28
6	0	15	0	7	1	11
8	0	9	0	10	1	12
7	0	6	7	0	1	13
5	6	8	0	0	1	14
7	0	0	11	3	1	17
8	9	5	0	0	1	17
9	5	13	0	0	1	17
4	9	0	0	3	1	19
4	3	12	0	0	2	22	23
10	6	3	0	0	1	20
9	0	4	0	11	1	21
7	6	0	0	4	1	32
3	8	0	0	2	1	32
3	0	1	7	0	1	32
1	0	9	11	0	1	32
2	6	0	10	0	1	32
8	0	15	12	0	1	32
3	12	0	7	0	1	32
5	0	0	11	2	1	32
9	0	0	16	4	1	32
6	0	0	1	2	1	32
3	9	0	0	5	1	32
0	0	0	0	0	0
